SATISFIABLE
# Atoms: 40
# Actions: 106
Trying with 2 states
# Atoms: 40
# Actions: 106
Cumulated solver time: 0.005416
Trying with 3 states
# Atoms: 40
# Actions: 106
Cumulated solver time: 0.011178
Trying with 4 states
# Atoms: 40
# Actions: 106
Cumulated solver time: 0.049773
